p cnf 7230 16
-1588 -2124 -2856 0
-1586 -2252 -2854 0
-381 -2276 -2852 0
-379 -2278 -2850 0
1588 -2857 0
1586 -2855 0
381 -2853 0
379 -2851 0
2856 2857 0
2854 2855 0
2852 2853 0
2850 2851 0
2124 -2857 0
2252 -2855 0
2276 -2853 0
2278 -2851 0
